c FILE: i080-142

c SOURCE: From steinlib

c DESCRIPTION: Steinlib instance with 80 nodes and 632 edges.

p edge 80 632
e 1 14
e 1 35
e 1 41
e 1 45
e 1 48
e 1 49
e 1 50
e 1 53
e 1 58
e 1 64
e 1 65
e 1 67
e 1 68
e 1 70
e 1 71
e 1 72
e 1 74
e 1 78
e 1 79
e 1 80
e 2 3
e 2 4
e 2 9
e 2 13
e 2 15
e 2 20
e 2 42
e 2 44
e 2 57
e 2 61
e 2 64
e 2 69
e 2 75
e 2 79
e 3 13
e 3 22
e 3 25
e 3 30
e 3 33
e 3 35
e 3 49
e 3 50
e 3 54
e 3 58
e 3 59
e 3 63
e 3 65
e 3 66
e 3 80
e 4 18
e 4 21
e 4 24
e 4 27
e 4 30
e 4 31
e 4 32
e 4 33
e 4 42
e 4 43
e 4 48
e 4 52
e 4 53
e 4 54
e 4 56
e 4 58
e 4 60
e 4 63
e 4 64
e 4 70
e 4 76
e 5 7
e 5 13
e 5 14
e 5 15
e 5 16
e 5 20
e 5 23
e 5 26
e 5 43
e 5 45
e 5 47
e 5 52
e 5 61
e 5 62
e 5 65
e 5 69
e 5 75
e 5 80
e 6 21
e 6 27
e 6 29
e 6 31
e 6 33
e 6 36
e 6 42
e 6 51
e 6 56
e 6 57
e 6 61
e 6 63
e 6 71
e 6 76
e 6 77
e 7 17
e 7 20
e 7 21
e 7 25
e 7 27
e 7 28
e 7 35
e 7 36
e 7 44
e 7 46
e 7 48
e 7 53
e 7 63
e 7 64
e 7 65
e 7 67
e 7 70
e 8 11
e 8 19
e 8 21
e 8 25
e 8 39
e 8 42
e 8 50
e 8 54
e 8 60
e 8 62
e 8 67
e 8 69
e 8 72
e 8 75
e 8 78
e 9 11
e 9 18
e 9 19
e 9 23
e 9 25
e 9 38
e 9 39
e 9 40
e 9 41
e 9 44
e 9 45
e 9 68
e 9 73
e 10 12
e 10 13
e 10 19
e 10 21
e 10 23
e 10 36
e 10 47
e 10 63
e 10 76
e 10 78
e 10 80
e 11 35
e 11 43
e 11 45
e 11 52
e 11 53
e 11 54
e 11 56
e 11 71
e 11 72
e 12 26
e 12 31
e 12 34
e 12 55
e 12 58
e 12 60
e 12 72
e 12 74
e 12 79
e 13 18
e 13 22
e 13 28
e 13 29
e 13 42
e 13 50
e 13 54
e 13 56
e 13 57
e 13 63
e 13 67
e 13 71
e 13 72
e 13 79
e 13 80
e 14 15
e 14 17
e 14 25
e 14 29
e 14 32
e 14 35
e 14 40
e 14 51
e 14 54
e 14 58
e 14 60
e 14 62
e 14 64
e 14 65
e 14 80
e 15 16
e 15 22
e 15 24
e 15 43
e 15 55
e 15 64
e 15 72
e 15 80
e 16 18
e 16 21
e 16 22
e 16 24
e 16 28
e 16 30
e 16 35
e 16 53
e 16 55
e 16 58
e 16 61
e 16 62
e 16 65
e 16 73
e 16 78
e 16 79
e 17 22
e 17 24
e 17 26
e 17 30
e 17 33
e 17 35
e 17 42
e 17 45
e 17 54
e 17 71
e 17 74
e 17 77
e 17 78
e 17 80
e 18 23
e 18 29
e 18 32
e 18 47
e 18 51
e 18 62
e 18 77
e 19 27
e 19 34
e 19 37
e 19 42
e 19 44
e 19 50
e 19 52
e 19 57
e 19 75
e 20 40
e 20 48
e 20 56
e 20 65
e 20 72
e 20 74
e 21 30
e 21 32
e 21 42
e 21 44
e 21 45
e 21 51
e 21 60
e 21 66
e 21 70
e 21 72
e 21 74
e 22 27
e 22 28
e 22 31
e 22 34
e 22 39
e 22 51
e 22 53
e 22 58
e 22 64
e 22 69
e 22 74
e 22 76
e 23 29
e 23 32
e 23 37
e 23 39
e 23 43
e 23 46
e 23 47
e 23 51
e 23 53
e 23 54
e 23 60
e 23 68
e 23 75
e 24 30
e 24 33
e 24 35
e 24 45
e 24 46
e 24 52
e 24 54
e 24 56
e 24 68
e 24 74
e 25 29
e 25 30
e 25 31
e 25 33
e 25 34
e 25 39
e 25 49
e 25 55
e 25 58
e 25 69
e 25 71
e 25 72
e 25 77
e 26 41
e 26 45
e 26 48
e 26 53
e 26 56
e 26 58
e 26 62
e 26 64
e 27 29
e 27 34
e 27 35
e 27 36
e 27 39
e 27 40
e 27 41
e 27 47
e 27 52
e 27 58
e 27 61
e 27 67
e 27 69
e 27 72
e 27 73
e 28 34
e 28 36
e 28 39
e 28 44
e 28 48
e 28 51
e 28 59
e 28 63
e 28 66
e 28 67
e 28 69
e 28 74
e 28 78
e 29 33
e 29 40
e 29 41
e 29 53
e 29 54
e 29 57
e 29 60
e 29 66
e 29 69
e 29 72
e 29 75
e 30 43
e 30 49
e 30 50
e 30 52
e 30 54
e 30 57
e 30 63
e 30 64
e 30 69
e 30 73
e 30 79
e 31 35
e 31 47
e 31 64
e 32 36
e 32 37
e 32 40
e 32 45
e 32 46
e 32 50
e 32 53
e 32 54
e 32 55
e 32 63
e 32 65
e 32 66
e 32 72
e 33 34
e 33 42
e 33 46
e 33 53
e 33 55
e 33 68
e 33 72
e 34 36
e 34 43
e 34 48
e 34 51
e 34 53
e 34 63
e 34 71
e 34 79
e 35 36
e 35 38
e 35 39
e 35 45
e 35 49
e 35 50
e 35 58
e 35 62
e 35 67
e 35 69
e 35 72
e 36 41
e 36 47
e 36 48
e 36 52
e 36 61
e 36 66
e 36 69
e 36 75
e 37 44
e 37 48
e 37 51
e 37 63
e 37 64
e 37 70
e 37 77
e 38 46
e 38 49
e 38 50
e 38 52
e 38 54
e 38 55
e 38 58
e 38 66
e 38 76
e 38 78
e 39 43
e 39 45
e 39 51
e 39 70
e 39 72
e 39 78
e 39 80
e 40 48
e 40 59
e 40 61
e 40 65
e 40 66
e 40 68
e 40 70
e 40 74
e 40 78
e 41 43
e 41 48
e 41 51
e 41 58
e 41 59
e 41 64
e 41 66
e 41 67
e 41 70
e 41 72
e 41 73
e 42 43
e 42 45
e 42 49
e 42 57
e 42 64
e 42 65
e 42 70
e 42 75
e 42 80
e 43 45
e 43 51
e 43 58
e 43 73
e 44 45
e 44 48
e 44 51
e 44 59
e 44 62
e 44 67
e 44 69
e 44 76
e 45 47
e 45 53
e 45 64
e 45 71
e 45 77
e 45 78
e 46 54
e 46 60
e 46 70
e 46 76
e 47 48
e 47 50
e 47 59
e 47 62
e 47 66
e 47 75
e 47 79
e 48 49
e 48 51
e 48 52
e 48 61
e 48 65
e 48 69
e 48 75
e 49 54
e 49 58
e 49 63
e 49 64
e 49 68
e 50 54
e 50 56
e 50 61
e 50 62
e 50 63
e 50 65
e 50 68
e 50 71
e 50 78
e 50 79
e 51 67
e 51 68
e 51 70
e 51 75
e 51 76
e 52 57
e 52 60
e 52 62
e 52 67
e 52 72
e 52 74
e 53 54
e 53 65
e 53 66
e 53 69
e 53 72
e 53 75
e 54 55
e 54 58
e 54 59
e 54 65
e 54 67
e 54 80
e 55 58
e 55 62
e 55 73
e 55 76
e 55 77
e 56 59
e 56 62
e 56 67
e 56 69
e 56 71
e 56 73
e 56 75
e 56 76
e 56 77
e 57 59
e 57 60
e 57 62
e 57 67
e 57 69
e 57 70
e 57 77
e 57 80
e 58 62
e 58 68
e 58 75
e 59 61
e 59 62
e 59 67
e 59 69
e 59 78
e 60 63
e 60 65
e 61 68
e 61 72
e 61 76
e 62 65
e 62 66
e 62 72
e 62 76
e 63 73
e 63 78
e 64 70
e 65 67
e 65 68
e 65 72
e 65 75
e 65 77
e 66 67
e 66 73
e 66 78
e 67 71
e 67 74
e 67 80
e 68 73
e 68 78
e 69 71
e 69 72
e 69 76
e 70 72
e 70 76
e 70 80
e 71 78
e 72 74
e 72 75
e 73 77
e 74 76
e 74 77
e 75 80
e 76 77
e 77 78
e 77 80
